c CNF file corresponding to a (partial) station packing problem.
p cnf 1916 229
1 2 3 4 5 6 7 8 9 10 11 12 13 14 0
-1 -2 0
-1 -3 0
-1 -4 0
-1 -5 0
-1 -6 0
-1 -7 0
-1 -8 0
-1 -9 0
-1 -10 0
-1 -11 0
-1 -12 0
-1 -13 0
-1 -14 0
-2 -3 0
-2 -4 0
-2 -5 0
-2 -6 0
-2 -7 0
-2 -8 0
-2 -9 0
-2 -10 0
-2 -11 0
-2 -12 0
-2 -13 0
-2 -14 0
-3 -4 0
-3 -5 0
-3 -6 0
-3 -7 0
-3 -8 0
-3 -9 0
-3 -10 0
-3 -11 0
-3 -12 0
-3 -13 0
-3 -14 0
-4 -5 0
-4 -6 0
-4 -7 0
-4 -8 0
-4 -9 0
-4 -10 0
-4 -11 0
-4 -12 0
-4 -13 0
-4 -14 0
-5 -6 0
-5 -7 0
-5 -8 0
-5 -9 0
-5 -10 0
-5 -11 0
-5 -12 0
-5 -13 0
-5 -14 0
-6 -7 0
-6 -8 0
-6 -9 0
-6 -10 0
-6 -11 0
-6 -12 0
-6 -13 0
-6 -14 0
-7 -8 0
-7 -9 0
-7 -10 0
-7 -11 0
-7 -12 0
-7 -13 0
-7 -14 0
-8 -9 0
-8 -10 0
-8 -11 0
-8 -12 0
-8 -13 0
-8 -14 0
-9 -10 0
-9 -11 0
-9 -12 0
-9 -13 0
-9 -14 0
-10 -11 0
-10 -12 0
-10 -13 0
-10 -14 0
-11 -12 0
-11 -13 0
-11 -14 0
-12 -13 0
-12 -14 0
-13 -14 0
1900 1901 1902 1903 1904 1905 1906 1907 1908 1909 1910 1911 1912 1913 1914 1915 1916 0
-1900 -1901 0
-1900 -1902 0
-1900 -1903 0
-1900 -1904 0
-1900 -1905 0
-1900 -1906 0
-1900 -1907 0
-1900 -1908 0
-1900 -1909 0
-1900 -1910 0
-1900 -1911 0
-1900 -1912 0
-1900 -1913 0
-1900 -1914 0
-1900 -1915 0
-1900 -1916 0
-1901 -1902 0
-1901 -1903 0
-1901 -1904 0
-1901 -1905 0
-1901 -1906 0
-1901 -1907 0
-1901 -1908 0
-1901 -1909 0
-1901 -1910 0
-1901 -1911 0
-1901 -1912 0
-1901 -1913 0
-1901 -1914 0
-1901 -1915 0
-1901 -1916 0
-1902 -1903 0
-1902 -1904 0
-1902 -1905 0
-1902 -1906 0
-1902 -1907 0
-1902 -1908 0
-1902 -1909 0
-1902 -1910 0
-1902 -1911 0
-1902 -1912 0
-1902 -1913 0
-1902 -1914 0
-1902 -1915 0
-1902 -1916 0
-1903 -1904 0
-1903 -1905 0
-1903 -1906 0
-1903 -1907 0
-1903 -1908 0
-1903 -1909 0
-1903 -1910 0
-1903 -1911 0
-1903 -1912 0
-1903 -1913 0
-1903 -1914 0
-1903 -1915 0
-1903 -1916 0
-1904 -1905 0
-1904 -1906 0
-1904 -1907 0
-1904 -1908 0
-1904 -1909 0
-1904 -1910 0
-1904 -1911 0
-1904 -1912 0
-1904 -1913 0
-1904 -1914 0
-1904 -1915 0
-1904 -1916 0
-1905 -1906 0
-1905 -1907 0
-1905 -1908 0
-1905 -1909 0
-1905 -1910 0
-1905 -1911 0
-1905 -1912 0
-1905 -1913 0
-1905 -1914 0
-1905 -1915 0
-1905 -1916 0
-1906 -1907 0
-1906 -1908 0
-1906 -1909 0
-1906 -1910 0
-1906 -1911 0
-1906 -1912 0
-1906 -1913 0
-1906 -1914 0
-1906 -1915 0
-1906 -1916 0
-1907 -1908 0
-1907 -1909 0
-1907 -1910 0
-1907 -1911 0
-1907 -1912 0
-1907 -1913 0
-1907 -1914 0
-1907 -1915 0
-1907 -1916 0
-1908 -1909 0
-1908 -1910 0
-1908 -1911 0
-1908 -1912 0
-1908 -1913 0
-1908 -1914 0
-1908 -1915 0
-1908 -1916 0
-1909 -1910 0
-1909 -1911 0
-1909 -1912 0
-1909 -1913 0
-1909 -1914 0
-1909 -1915 0
-1909 -1916 0
-1910 -1911 0
-1910 -1912 0
-1910 -1913 0
-1910 -1914 0
-1910 -1915 0
-1910 -1916 0
-1911 -1912 0
-1911 -1913 0
-1911 -1914 0
-1911 -1915 0
-1911 -1916 0
-1912 -1913 0
-1912 -1914 0
-1912 -1915 0
-1912 -1916 0
-1913 -1914 0
-1913 -1915 0
-1913 -1916 0
-1914 -1915 0
-1914 -1916 0
-1915 -1916 0
